NAME :  IRP
COMMENT : 
TYPE :  CVRP
DIMENSION : 	13
EDGE_WEIGHT_TYPE : 	EUC_2D
CAPACITY : 	825
NODE_COORD_SECTION
1	113	95
2	432	250
3	332	420
4	158	453
5	296	322
6	363	330
7	423	238
8	266	433
9	363	368
10	374	148
11	81	442
12	46	351
13	188	69
DEMAND_SECTION
1	0
2	72
3	55
4	45
5	20
6	91
7	174
8	36
9	39
10	51
11	174
12	129
13	92
DEPOT_SECTION
	1
	-1
EOF
